s = array1d(1..400, [9, 0, 0, 17, 0, 13, 5, 0, 0, 15, 14, 10, 0, 4, 19, 0, 0, 0, 0, 3, 0, 4, 16, 0, 0, 14, 0, 18, 19, 0, 8, 7, 17, 2, 0, 0, 0, 11, 0, 0, 0, 14, 8, 10, 15, 4, 6, 0, 0, 3, 0, 0, 16, 17, 0, 9, 13, 0, 0, 0, 1, 18, 0, 7, 5, 0, 16, 0, 0, 0, 0, 2, 19, 0, 0, 10, 17, 8, 13, 0, 14, 1, 0, 19, 0, 8, 4, 6, 10, 16, 0, 18, 0, 0, 0, 0, 0, 0, 11, 0, 13, 0, 19, 0, 16, 0, 0, 5, 0, 0, 12, 3, 6, 0, 10, 11, 0, 0, 0, 1, 15, 11, 13, 0, 2, 0, 17, 7, 0, 10, 0, 0, 0, 0, 5, 3, 14, 9, 0, 0, 3, 0, 0, 0, 0, 0, 2, 11, 17, 0, 0, 13, 0, 18, 0, 7, 15, 0, 14, 0, 18, 5, 6, 0, 0, 0, 0, 17, 15, 0, 0, 0, 0, 7, 12, 13, 0, 3, 9, 14, 0, 0, 7, 16, 0, 15, 13, 0, 0, 19, 2, 14, 4, 0, 18, 8, 0, 0, 0, 11, 16, 3, 5, 11, 0, 0, 0, 19, 12, 17, 0, 0, 0, 10, 0, 14, 0, 0, 0, 2, 0, 0, 2, 0, 0, 10, 0, 0, 0, 18, 3, 0, 13, 0, 11, 16, 9, 5, 6, 4, 0, 6, 0, 5, 18, 0, 9, 0, 3, 4, 13, 8, 0, 0, 0, 0, 11, 0, 0, 12, 0, 0, 0, 1, 0, 3, 0, 0, 9, 14, 5, 6, 12, 0, 0, 0, 0, 0, 8, 18, 0, 0, 10, 0, 8, 12, 18, 16, 7, 0, 4, 5, 1, 0, 6, 0, 0, 0, 0, 0, 0, 0, 11, 15, 17, 0, 1, 0, 8, 0, 0, 0, 9, 13, 0, 5, 18, 16, 0, 0, 0, 0, 0, 6, 9, 0, 0, 0, 16, 0, 11, 0, 2, 1, 0, 18, 8, 13, 0, 7, 8, 19, 0, 0, 6, 0, 0, 0, 0, 2, 0, 11, 3, 0, 17, 0, 10, 12, 18, 0, 17, 12, 0, 0, 0, 2, 0, 4, 0, 0, 9, 0, 0, 6, 15, 0, 16, 18, 7, 0, 5, 0, 17, 0, 7, 0, 10, 15, 0, 0, 6, 0, 0, 0, 9, 0, 1, 0, 19, 16]);
n = 20;
